14
0 670 633 597 755 978 690 691 589 508 897 974 653 535 
670 0 943 942 915 746 502 540 885 639 867 956 730 777 
633 943 0 529 825 720 720 943 762 692 989 773 554 874 
597 942 529 0 976 596 919 806 824 815 678 896 633 510 
755 915 825 976 0 705 542 678 570 945 590 982 546 835 
978 746 720 596 705 0 864 741 627 563 610 748 503 896 
690 502 720 919 542 864 0 680 988 998 919 676 823 686 
691 540 943 806 678 741 680 0 800 796 899 712 842 552 
589 885 762 824 570 627 988 800 0 748 638 574 602 943 
508 639 692 815 945 563 998 796 748 0 501 603 552 615 
897 867 989 678 590 610 919 899 638 501 0 907 645 898 
974 956 773 896 982 748 676 712 574 603 907 0 836 618 
653 730 554 633 546 503 823 842 602 552 645 836 0 906 
535 777 874 510 835 896 686 552 943 615 898 618 906 0 
